
Gurobi 12.0.1 (mac64[arm], Python) logging started Mon Apr 14 23:46:08 2025

Set parameter Username
Set parameter LicenseID to value 2650602
Set parameter LogFile to value "gurobi_relaxed.log"
Academic license - for non-commercial use only - expires 2026-04-12
Gurobi Optimizer version 12.0.1 build v12.0.1rc0 (mac64[arm] - Darwin 23.4.0 23E214)

CPU model: Apple M1
Thread count: 8 physical cores, 8 logical processors, using up to 8 threads

Optimize a model with 107903 rows, 105760 columns and 368130 nonzeros
Model fingerprint: 0x21f1f59f
Coefficient statistics:
  Matrix range     [1e+00, 1e+02]
  Objective range  [1e+00, 1e+00]
  Bounds range     [1e+00, 1e+00]
  RHS range        [2e+00, 1e+02]
Presolve removed 83795 rows and 54296 columns
Presolve time: 0.20s
Presolved: 24108 rows, 51464 columns, 188443 nonzeros

Concurrent LP optimizer: primal simplex, dual simplex, and barrier
Showing barrier log only...

Ordering time: 0.57s

Barrier performed 0 iterations in 0.81 seconds (0.64 work units)
Barrier solve interrupted - model solved by another algorithm


Solved with dual simplex
Iteration    Objective       Primal Inf.    Dual Inf.      Time
    8737    2.0000000e+01   0.000000e+00   0.000000e+00      1s

Solved in 8737 iterations and 0.89 seconds (0.62 work units)
Optimal objective  2.000000000e+01

Gurobi 12.0.1 (mac64[arm], Python) logging started Mon Apr 14 23:46:28 2025

Set parameter Username
Set parameter LicenseID to value 2650602
Set parameter LogFile to value "gurobi_relaxed.log"
Academic license - for non-commercial use only - expires 2026-04-12
Gurobi Optimizer version 12.0.1 build v12.0.1rc0 (mac64[arm] - Darwin 23.4.0 23E214)

CPU model: Apple M1
Thread count: 8 physical cores, 8 logical processors, using up to 8 threads

Optimize a model with 107903 rows, 105760 columns and 368130 nonzeros
Model fingerprint: 0xf43516cb
Coefficient statistics:
  Matrix range     [1e+00, 1e+02]
  Objective range  [1e+00, 1e+00]
  Bounds range     [1e+00, 1e+00]
  RHS range        [2e+00, 1e+02]
Presolve removed 83796 rows and 54296 columns
Presolve time: 0.19s
Presolved: 24107 rows, 51464 columns, 188441 nonzeros

Concurrent LP optimizer: primal simplex, dual simplex, and barrier
Showing barrier log only...

Ordering time: 0.57s

Barrier performed 0 iterations in 0.81 seconds (0.63 work units)
Barrier solve interrupted - model solved by another algorithm


Solved with dual simplex
Iteration    Objective       Primal Inf.    Dual Inf.      Time
    8253    2.0000000e+01   0.000000e+00   0.000000e+00      1s

Solved in 8253 iterations and 0.88 seconds (0.59 work units)
Optimal objective  2.000000000e+01

Gurobi 12.0.1 (mac64[arm], Python) logging started Mon Apr 14 23:46:48 2025

Set parameter Username
Set parameter LicenseID to value 2650602
Set parameter LogFile to value "gurobi_relaxed.log"
Academic license - for non-commercial use only - expires 2026-04-12
Gurobi Optimizer version 12.0.1 build v12.0.1rc0 (mac64[arm] - Darwin 23.4.0 23E214)

CPU model: Apple M1
Thread count: 8 physical cores, 8 logical processors, using up to 8 threads

Optimize a model with 107903 rows, 105760 columns and 368130 nonzeros
Model fingerprint: 0xc824d44e
Coefficient statistics:
  Matrix range     [1e+00, 1e+02]
  Objective range  [1e+00, 1e+00]
  Bounds range     [1e+00, 1e+00]
  RHS range        [2e+00, 1e+02]
Presolve removed 83795 rows and 54296 columns
Presolve time: 0.20s
Presolved: 24108 rows, 51464 columns, 188443 nonzeros

Concurrent LP optimizer: primal simplex, dual simplex, and barrier
Showing barrier log only...

Ordering time: 0.73s

Barrier performed 0 iterations in 0.98 seconds (0.67 work units)
Barrier solve interrupted - model solved by another algorithm


Solved with dual simplex
Iteration    Objective       Primal Inf.    Dual Inf.      Time
    8777    2.0000000e+01   0.000000e+00   0.000000e+00      1s

Solved in 8777 iterations and 1.05 seconds (0.64 work units)
Optimal objective  2.000000000e+01
